0001101010001101000100101        409
0100101101001111000100011        426
0100101101001111000100011        426
1010011011011001000000001        445
1010011011011001000000001        445
1010011011011001000000001        445
1010011011011001000000001        445
1010011011011001000000001        445
1000011100011001001000011        450
0001111000011111000110011        480
0001111000011111000110011        480
0001111000011111000110011        480
0001111000011111000110011        480
0001111000011111000110011        480
0001111000011111000110011        480
0001111000011111000110011        480
0001111000011111000110011        480
0001111000011111000110011        480
0001111000011111000110011        480
0001111000011111000110011        480
0001111000011111000110011        480
0001111000011111000110011        480
0001111000011111000110011        480
0001111000011111000110011        480
0001111000011111000110011        480
0001111000011111000110011        480
0001111000011111000110011        480
0001111000011111000110011        480
0001111000011111000110011        480
0001111000011111000110011        480
0001111000011111000110011        480
0001111000011111000110011        480
0001111000011111000110011        480
0001111000011111000110011        480
0001111000011111000110011        480
0001111000011111000110011        480
0001111000011111000110011        480
0001111000011111000110011        480
0001111000011111000110011        480
0001111000011111000110011        480
0001111000011111000110011        480
0001111000011111000110011        480
0001111000011111000110011        480
0001111000011111000110011        480
0001111000011111000110011        480
0001111000011111000110011        480
0001111000011111000110011        480
0001111000011111000110011        480
0001111000011111000110011        480
0001111000011111000110011        480
0001111000011111000110011        480
0001111000011111000110011        480
0001111000011111000110011        480
0001111000011111000110011        480
0001111000011111000110011        480
0001111000011111000110011        480
0001111000011111000110011        480
0001111000011111000110011        480
0001111000011111000110011        480
0001111000011111000110011        480
0001111000011111000110011        480
0001111000011111000110011        480
0001111000011111000110011        480
0001111000011111000110011        480
0001111000011111000110011        480
0001111000011111000110011        480
0001111000011111000110011        480
0001111000011111000110011        480
0001111000011111000110011        480
0001111000011111000110011        480
0001111000011111000110011        480
0001111000011111000110011        480
0001111000011111000110011        480
0001111000011111000110011        480
0001111000011111000110011        480
0001111000011111000110011        480
0001111000011111000110011        480
0001111000011111000110011        480
0001111000011111000110011        480
0001111000011111000110011        480
0001111000011111000110011        480
0001111000011111000110011        480
0001111000011111000110011        480
0001111000011111000110011        480
0001111000011111000110011        480
0001111000011111000110011        480
0001111000011111000110011        480
0001111000011111000110011        480
0001111000011111000110011        480
0001111000011111000110011        480
0001111000011111000110011        480
0001111000011111000110011        480
0001111000011111000110011        480
0001111000011111000110011        480
0001111000011111000110011        480
0001111000011111000110011        480
0001111000011111000110011        480
0001111000011111000110011        480
0001111000011111000110011        480
0001111000011111000110011        480
0001111000011111000110011        480
0001111000011111000110011        480
0001111000011111000110011        480
0001111000011111000110011        480
0001111000011111000110011        480
0001111000011111000110011        480
0001111000011111000110011        480
0001111000011111000110011        480
0001111000011111000110011        480
0001111000011111000110011        480
0001111000011111000110011        480
0001111000011111000110011        480
0001111000011111000110011        480
0001111000011111000110011        480
0001111000011111000110011        480
0001111000011111000110011        480
0001111000011111000110011        480
0001111000011111000110011        480
0001111000011111000110011        480
0001111000011111000110011        480
0001111000011111000110011        480
0001111000011111000110011        480
0001111000011111000110011        480
0001111000011111000110011        480
0001111000011111000110011        480
0001111000011111000110011        480
0001111000011111000110011        480
0001111000011111000110011        480
0001111000011111000110011        480
0001111000011111000110011        480
0001111000011111000110011        480
0001111000011111000110011        480
0001111000011111000110011        480
0001111000011111000110011        480
0001111000011111000110011        480
0001111000011111000110011        480
0001111000011111000110011        480
0001111000011111000110011        480
0001111000011111000110011        480
0001111000011111000110011        480
0001111000011111000110011        480
0001111000011111000110011        480
0001111000011111000110011        480
0001111000011111000110011        480
0001111000011111000110011        480
0001111000011111000110011        480
0001111000011111000110011        480
0001111000011111000110011        480
0001111000011111000110011        480
0001111000011111000110011        480
0001111000011111000110011        480
0001111000011111000110011        480
0001111000011111000110011        480
0001111000011111000110011        480
0001111000011111000110011        480
0001111000011111000110011        480
0001111000011111000110011        480
0001111000011111000110011        480
0001111000011111000110011        480
0001111000011111000110011        480
0001111000011111000110011        480
0001111000011111000110011        480
0001111000011111000110011        480
0001111000011111000110011        480
0001111000011111000110011        480
0001111000011111000110011        480
0001111000011111000110011        480
0001111000011111000110011        480
0001111000011111000110011        480
0001111000011111000110011        480
0001111000011111000110011        480
0001111000011111000110011        480
0001111000011111000110011        480
0001111000011111000110011        480
0001111000011111000110011        480
0001111000011111000110011        480
0001111000011111000110011        480
0001111000011111000110011        480
0001111000011111000110011        480
0001111000011111000110011        480
0001111000011111000110011        480
0001111000011111000110011        480
0001111000011111000110011        480
0001111000011111000110011        480
0001111000011111000110011        480
0001111000011111000110011        480
0001111000011111000110011        480
0001111000011111000110011        480
0001111000011111000110011        480
0001111000011111000110011        480
0001111000011111000110011        480
0001111000011111000110011        480
0001111000011111000110011        480
0001111000011111000110011        480
0001111000011111000110011        480
0001111000011111000110011        480
0001111000011111000110011        480
0001111000011111000110011        480
0001111000011111000110011        480
0001111000011111000110011        480
0001111000011111000110011        480
0001111000011111000110011        480
0001111000011111000110011        480
0001111000011111000110011        480
0001111000011111000110011        480
0001111000011111000110011        480
0001111000011111000110011        480
0001111000011111000110011        480
0001111000011111000110011        480
0001111000011111000110011        480
0001111000011111000110011        480
0001111000011111000110011        480
0001111000011111000110011        480
0001111000011111000110011        480
0001111000011111000110011        480
0001111000011111000110011        480
0001111000011111000110011        480
0001111000011111000110011        480
0001111000011111000110011        480
0001111000011111000110011        480
0001111000011111000110011        480
0001111000011111000110011        480
0001111000011111000110011        480
0001111000011111000110011        480
0001111000011111000110011        480
0001111000011111000110011        480
0001111000011111000110011        480
0001111000011111000110011        480
0001111000011111000110011        480
0001111000011111000110011        480
0001111000011111000110011        480
0001111000011111000110011        480
0001111000011111000110011        480
1011011101011111000100011        487
1011011101011111000100011        487
1011011101011111000100011        487
1011011101011111000100011        487
1011011101011111000100011        487
1011011101011111000100011        487
1011011101011111000100011        487
1011011101011111000100011        487
1011011101011111000100011        487
1011011101011111000100011        487
1011011101011111000100011        487
1011011101011111000100011        487
1011011101011111000100011        487
1011011101011111000100011        487
1011011101011111000100011        487
1011011101011111000100011        487
1011011101011111000100011        487
1011011101011111000100011        487
1011011101011111000100011        487
1011011101011111000100011        487
1011011101011111000100011        487
1011011101011111000100011        487
1011011101011111000100011        487
1011011101011111000100011        487
1011011101011111000100011        487
1011011101011111000100011        487
1011011101011111000100011        487
1011011101011111000100011        487
1011011101011111000100011        487
1011011101011111000100011        487
1011011101011111000100011        487
1011011101011111000100011        487
1011011101011111000100011        487
1011011101011111000100011        487
1011011101011111000100011        487
1011011101011111000100011        487
1011011101011111000100011        487
1011011101011111000100011        487
1011011101011111000100011        487
1011011101011111000100011        487
1011011101011111000100011        487
1011011101011111000100011        487
1011011101011111000100011        487
1011011101011111000100011        487
1011011101011111000100011        487
1011011101011111000100011        487
1011011101011111000100011        487
1011011101011111000100011        487
1011011101011111000100011        487
1011011101011111000100011        487
1011011101011111000100011        487
1011011101011111000100011        487
1011011101011111000100011        487
1011011101011111000100011        487
1011011101011111000100011        487
1011011101011111000100011        487
1011011101011111000100011        487
1011011101011111000100011        487
1011011101011111000100011        487
1011011101011111000100011        487
1011011101011111000100011        487
1011011101011111000100011        487
1011011101011111000100011        487
1011011101011111000100011        487
1011011101011111000100011        487
1011011101011111000100011        487
1011011101011111000100011        487
1011011101011111000100011        487
1011011101011111000100011        487
1011011101011111000100011        487
1011011101011111000100011        487
1011011101011111000100011        487
1011011101011111000100011        487
1011011101011111000100011        487
1011011101011111000100011        487
1011011101011111000100011        487
1011011101011111000100011        487
1011011101011111000100011        487
1011011101011111000100011        487
1011011101011111000100011        487
1011011101011111000100011        487
1011011101011111000100011        487
1011011101011111000100011        487
1011011101011111000100011        487
1011011101011111000100011        487
1011011101011111000100011        487
1011011101011111000100011        487
1011011101011111000100011        487
1011011101011111000100011        487
1011011101011111000100011        487
1011011101011111000100011        487
1011011101011111000100011        487
1011011101011111000100011        487
1011011101011111000100011        487
1011011101011111000100011        487
1011011101011111000100011        487
1011011101011111000100011        487
1011011101011111000100011        487
1011011101011111000100011        487
1011011101011111000100011        487
1011011101011111000100011        487
1011011101011111000100011        487
1011011101011111000100011        487
1011011101011111000100011        487
1011011101011111000100011        487
1011011101011111000100011        487
1011011101011111000100011        487
1011011101011111000100011        487
1011011101011111000100011        487
1011011101011111000100011        487
1011011101011111000100011        487
1011011101011111000100011        487
1011011101011111000100011        487
1011011101011111000100011        487
1011011101011111000100011        487
1011011101011111000100011        487
1011011101011111000100011        487
1011011101011111000100011        487
1011011101011111000100011        487
1011011101011111000100011        487
1011011101011111000100011        487
1011011101011111000100011        487
1011011101011111000100011        487
1011011101011111000100011        487
1011011101011111000100011        487
1011011101011111000100011        487
1011011101011111000100011        487
1011011101011111000100011        487
1011011101011111000100011        487
1011011101011111000100011        487
1011011101011111000100011        487
1011011101011111000100011        487
1011011101011111000100011        487
1011011101011111000100011        487
1011011101011111000100011        487
1011011101011111000100011        487
1011011101011111000100011        487
1011011101011111000100011        487
1011011101011111000100011        487
1011011101011111000100011        487
1011011101011111000100011        487
1011011101011111000100011        487
1011011101011111000100011        487
1011011101011111000100011        487
1011011101011111000100011        487
1011011101011111000100011        487
1011011101011111000100011        487
1011011101011111000100011        487
1011011101011111000100011        487
1011011101011111000100011        487
1011011101011111000100011        487
1011011101011111000100011        487
1011011101011111000100011        487
1011011101011111000100011        487
1011011101011111000100011        487
1011011101011111000100011        487
1011011101011111000100011        487
1011011101011111000100011        487
1011011101011111000100011        487
1011011101011111000100011        487
1011011101011111000100011        487
1011011101011111000100011        487
1011011101011111000100011        487
1011011101011111000100011        487
1011011101011111000100011        487
1011011101011111000100011        487
1011011101011111000100011        487
1011011101011111000100011        487
1011011101011111000100011        487
1011011101011111000100011        487
1011011101011111000100011        487
1011011101011111000100011        487
1011011101011111000100011        487
1011011101011111000100011        487
1011011101011111000100011        487
1011011101011111000100011        487
1011011101011111000100011        487
1011011101011111000100011        487
1011011101011111000100011        487
1011011101011111000100011        487
1011011101011111000100011        487
1011011101011111000100011        487
1011011101011111000100011        487
1011011101011111000100011        487
1011011101011111000100011        487
1011011101011111000100011        487
1011011101011111000100011        487
1011011101011111000100011        487
1011011101011111000100011        487
1011011101011111000100011        487
1011011101011111000100011        487
1011011101011111000100011        487
1011011101011111000100011        487
1011011101011111000100011        487
1011011101011111000100011        487
1011011101011111000100011        487
1011011101011111000100011        487
1011011101011111000100011        487
1011011101011111000100011        487
1011011101011111000100011        487
1011011101011111000100011        487
1011011101011111000100011        487
1011011101011111000100011        487
1011011101011111000100011        487
1011011101011111000100011        487
1011011101011111000100011        487
1011011101011111000100011        487
1011011101011111000100011        487
1011011101011111000100011        487
1011011101011111000100011        487
1011011101011111000100011        487
1011011101011111000100011        487
1011011101011111000100011        487
1011011101011111000100011        487
1011011101011111000100011        487
1011011101011111000100011        487
1011011101011111000100011        487
1011011101011111000100011        487
1011011101011111000100011        487
1011011101011111000100011        487
1011011101011111000100011        487
1011011101011111000100011        487
1011011101011111000100011        487
1011011101011111000100011        487
1011011101011111000100011        487
1011011101011111000100011        487
1011011101011111000100011        487
1011011101011111000100011        487
1011011101011111000100011        487
1011011101011111000100011        487
1011011101011111000100011        487
1011011101011111000100011        487
1011011101011111000100011        487
1011011101011111000100011        487
1011011101011111000100011        487
1011011101011111000100011        487
1011011101011111000100011        487
1011011101011111000100011        487
1011011101011111000100011        487
1011011101011111000100011        487
1011011101011111000100011        487
1011011101011111000100011        487
1011011101011111000100011        487
1011011101011111000100011        487
1011011101011111000100011        487
1011011101011111000100011        487
1011011101011111000100011        487
1011011101011111000100011        487
1011011101011111000100011        487
1011011101011111000100011        487
1011011101011111000100011        487
1011011101011111000100011        487
1011011101011111000100011        487
1011011101011111000100011        487
1011011101011111000100011        487
1011011101011111000100011        487
1011011101011111000100011        487
1011011101011111000100011        487
1011011101011111000100011        487
1011011101011111000100011        487
1011011101011111000100011        487
1011011101011111000100011        487
1011011101011111000100011        487
1011011101011111000100011        487
1011011101011111000100011        487
1011011101011111000100011        487
1011011101011111000100011        487
1011011101011111000100011        487
1011011101011111000100011        487
1011011101011111000100011        487
1011011101011111000100011        487
1011011101011111000100011        487
1011011101011111000100011        487
1011011101011111000100011        487
1011011101011111000100011        487
1011011101011111000100011        487
1011011101011111000100011        487
1011011101011111000100011        487
1011011101011111000100011        487
1011011101011111000100011        487
1011011101011111000100011        487
1011011101011111000100011        487
1011011101011111000100011        487
1011011101011111000100011        487
1011011101011111000100011        487
1011011101011111000100011        487
1011011101011111000100011        487
1011011101011111000100011        487
1011011101011111000100011        487
1011011101011111000100011        487
1011011101011111000100011        487
1011011101011111000100011        487
1011011101011111000100011        487
1011011101011111000100011        487
1011011101011111000100011        487
1011011101011111000100011        487
1011011101011111000100011        487
1011011101011111000100011        487
1011011101011111000100011        487
1011011101011111000100011        487
1011011101011111000100011        487
1011011101011111000100011        487
1011011101011111000100011        487
1011011101011111000100011        487
1011011101011111000100011        487
1011011101011111000100011        487
1011011101011111000100011        487
1011011101011111000100011        487
1011011101011111000100011        487
1011011101011111000100011        487
1011011101011111000100011        487
1011011101011111000100011        487
1011011101011111000100011        487
1011011101011111000100011        487
1011011101011111000100011        487
1011011101011111000100011        487
1011011101011111000100011        487
1011011101011111000100011        487
1011011101011111000100011        487
1011011101011111000100011        487
1011011101011111000100011        487
1011011101011111000100011        487
1011011101011111000100011        487
1011011101011111000100011        487
1011011101011111000100011        487
1011011101011111000100011        487
1011011101011111000100011        487
1011011101011111000100011        487
1011011101011111000100011        487
1011011101011111000100011        487
1011011101011111000100011        487
1011011101011111000100011        487
1011011101011111000100011        487
1011011101011111000100011        487
1011011101011111000100011        487
1011011101011111000100011        487
1011011101011111000100011        487
1011011101011111000100011        487
1011011101011111000100011        487
1011011101011111000100011        487
1011011101011111000100011        487
1011011101011111000100011        487
1011011101011111000100011        487
1011011101011111000100011        487
1011011101011111000100011        487
1011011101011111000100011        487
1011011101011111000100011        487
1011011101011111000100011        487
1011011101011111000100011        487
1011011101011111000100011        487
1011011101011111000100011        487
1011011101011111000100011        487
1011011101011111000100011        487
1011011101011111000100011        487
1011011101011111000100011        487
1011011101011111000100011        487
1011011101011111000100011        487
1011011101011111000100011        487
1011011101011111000100011        487
1011011101011111000100011        487
1011011101011111000100011        487
1011011101011111000100011        487
1011011101011111000100011        487
1011011101011111000100011        487
1011011101011111000100011        487
1011011101011111000100011        487
1011011101011111000100011        487
1011011101011111000100011        487
1011011101011111000100011        487
1011011101011111000100011        487
1011011101011111000100011        487
1011011101011111000100011        487
1011011101011111000100011        487
1011011101011111000100011        487
1011011101011111000100011        487
1011011101011111000100011        487
1011011101011111000100011        487
1011011101011111000100011        487
1011011101011111000100011        487
1011011101011111000100011        487
1011011101011111000100011        487
1011011101011111000100011        487
1011011101011111000100011        487
1011011101011111000100011        487
1011011101011111000100011        487
1011011101011111000100011        487
1011011101011111000100011        487
1011011101011111000100011        487
1011011101011111000100011        487
1011011101011111000100011        487
1011011101011111000100011        487
1011011101011111000100011        487
1011011101011111000100011        487
1011011101011111000100011        487
1011011101011111000100011        487
1011011101011111000100011        487
1011011101011111000100011        487
1011011101011111000100011        487
1011011101011111000100011        487
1011011101011111000100011        487
1011011101011111000100011        487
1011011101011111000100011        487
1011011101011111000100011        487
1011011101011111000100011        487
1011011101011111000100011        487
1011011101011111000100011        487
1011011101011111000100011        487
1011011101011111000100011        487
1011011101011111000100011        487
1011011101011111000100011        487
1011011101011111000100011        487
1011011101011111000100011        487
1011011101011111000100011        487
1011011101011111000100011        487
1011011101011111000100011        487
1011011101011111000100011        487
1011011101011111000100011        487
1011011101011111000100011        487
1011011101011111000100011        487
1011011101011111000100011        487
1011011101011111000100011        487
1011011101011111000100011        487
1011011101011111000100011        487
1011011101011111000100011        487
1011011101011111000100011        487
1011011101011111000100011        487
1011011101011111000100011        487
1011011101011111000100011        487
1011011101011111000100011        487
1011011101011111000100011        487
1011011101011111000100011        487
1011011101011111000100011        487
1011011101011111000100011        487
1011011101011111000100011        487
1011011101011111000100011        487
1011011101011111000100011        487
1011011101011111000100011        487
1011011101011111000100011        487
1011011101011111000100011        487
1011011101011111000100011        487
1011011101011111000100011        487
1011011101011111000100011        487
1011011101011111000100011        487
1011011101011111000100011        487
1011011101011111000100011        487
1011011101011111000100011        487
1011011101011111000100011        487
1011011101011111000100011        487
1011011101011111000100011        487
1011011101011111000100011        487
1011011101011111000100011        487
1011011101011111000100011        487
1011011101011111000100011        487
1011011101011111000100011        487
1011011101011111000100011        487
1011011101011111000100011        487
1011011101011111000100011        487
1011011101011111000100011        487
1011011101011111000100011        487
1011011101011111000100011        487
1011011101011111000100011        487
1011011101011111000100011        487
1011011101011111000100011        487
1011011101011111000100011        487
1011011101011111000100011        487
1011011101011111000100011        487
1011011101011111000100011        487
1011011101011111000100011        487
1011011101011111000100011        487
1011011101011111000100011        487
1011011101011111000100011        487
1011011101011111000100011        487
1011011101011111000100011        487
1011011101011111000100011        487
1011011101011111000100011        487
1011011101011111000100011        487
1011011101011111000100011        487
1011011101011111000100011        487
1011011101011111000100011        487
1011011101011111000100011        487
1011011101011111000100011        487
1011011101011111000100011        487
1011011101011111000100011        487
1011011101011111000100011        487
1011011101011111000100011        487
1011011101011111000100011        487
1011011101011111000100011        487
1011011101011111000100011        487
1011011101011111000100011        487
1011011101011111000100011        487
1011011101011111000100011        487
1011011101011111000100011        487
1011011101011111000100011        487
1011011101011111000100011        487
1011011101011111000100011        487
1011011101011111000100011        487
1011011101011111000100011        487
1011011101011111000100011        487
1011011101011111000100011        487
1011011101011111000100011        487
1011011101011111000100011        487
1011011101011111000100011        487
1011011101011111000100011        487
1011011101011111000100011        487
1011011101011111000100011        487
1011011101011111000100011        487
1011011101011111000100011        487
1011011101011111000100011        487
1011011101011111000100011        487
1011011101011111000100011        487
1011011101011111000100011        487
1011011101011111000100011        487
1011011101011111000100011        487
1011011101011111000100011        487
1011011101011111000100011        487
1011011101011111000100011        487
1011011101011111000100011        487
1011011101011111000100011        487
1011011101011111000100011        487
1011011101011111000100011        487
1011011101011111000100011        487
1011011101011111000100011        487
1011011101011111000100011        487
1011011101011111000100011        487
1011011101011111000100011        487
1011011101011111000100011        487
1011011101011111000100011        487
1011011101011111000100011        487
1011011101011111000100011        487
1011011101011111000100011        487
1011011101011111000100011        487
1011011101011111000100011        487
1011011101011111000100011        487
1011011101011111000100011        487
1011011101011111000100011        487
1011011101011111000100011        487
1011011101011111000100011        487
1011011101011111000100011        487
1011011101011111000100011        487
1011011101011111000100011        487
1011011101011111000100011        487
1011011101011111000100011        487
1011011101011111000100011        487
1011011101011111000100011        487
1011011101011111000100011        487
1011011101011111000100011        487
1011011101011111000100011        487
1011011101011111000100011        487
1011011101011111000100011        487
1011011101011111000100011        487
1011011101011111000100011        487
1011011101011111000100011        487
1011011101011111000100011        487
1011011101011111000100011        487
1011011101011111000100011        487
1011011101011111000100011        487
1011011101011111000100011        487
1011011101011111000100011        487
1011011101011111000100011        487
1011011101011111000100011        487
1011011101011111000100011        487
1011011101011111000100011        487
1011011101011111000100011        487
1011011101011111000100011        487
1011011101011111000100011        487
1011011101011111000100011        487
1011011101011111000100011        487
1011011101011111000100011        487
1011011101011111000100011        487
1011011101011111000100011        487
1011011101011111000100011        487
1011011101011111000100011        487
1011011101011111000100011        487
1011011101011111000100011        487
1011011101011111000100011        487
1011011101011111000100011        487
1011011101011111000100011        487
1011011101011111000100011        487
1011011101011111000100011        487
1011011101011111000100011        487
1011011101011111000100011        487
1011011101011111000100011        487
1011011101011111000100011        487
1011011101011111000100011        487
1011011101011111000100011        487
1011011101011111000100011        487
1011011101011111000100011        487
1011011101011111000100011        487
1011011101011111000100011        487
1011011101011111000100011        487
1011011101011111000100011        487
1011011101011111000100011        487
1011011101011111000100011        487
1011011101011111000100011        487
1011011101011111000100011        487
1011011101011111000100011        487
1011011101011111000100011        487
1011011101011111000100011        487
1011011101011111000100011        487
1011011101011111000100011        487
1011011101011111000100011        487
1011011101011111000100011        487
1011011101011111000100011        487
1011011101011111000100011        487
1011011101011111000100011        487
1011011101011111000100011        487
1011011101011111000100011        487
1011011101011111000100011        487
1011011101011111000100011        487
1011011101011111000100011        487
1011011101011111000100011        487
1011011101011111000100011        487
1011011101011111000100011        487
1011011101011111000100011        487
1011011101011111000100011        487
1011011101011111000100011        487
1011011101011111000100011        487
1011011101011111000100011        487
1011011101011111000100011        487
1011011101011111000100011        487
1011011101011111000100011        487
1011011101011111000100011        487
1011011101011111000100011        487
1011011101011111000100011        487
1011011101011111000100011        487
1011011101011111000100011        487
1011011101011111000100011        487
1011011101011111000100011        487
1011011101011111000100011        487
1011011101011111000100011        487
1011011101011111000100011        487
1011011101011111000100011        487
1011011101011111000100011        487
1011011101011111000100011        487
1011011101011111000100011        487
1011011101011111000100011        487
1011011101011111000100011        487
1011011101011111000100011        487
1011011101011111000100011        487
1011011101011111000100011        487
1011011101011111000100011        487
1011011101011111000100011        487
1011011101011111000100011        487
1011011101011111000100011        487
1011011101011111000100011        487
1011011101011111000100011        487
1011011101011111000100011        487
1011011101011111000100011        487
1011011101011111000100011        487
1011011101011111000100011        487
1011011101011111000100011        487
1011011101011111000100011        487
1011011101011111000100011        487
1011011101011111000100011        487
1011011101011111000100011        487
1011011101011111000100011        487
1011011101011111000100011        487
1011011101011111000100011        487
1011011101011111000100011        487
1011011101011111000100011        487
1011011101011111000100011        487
1011011101011111000100011        487
1011011101011111000100011        487
1011011101011111000100011        487
1011011101011111000100011        487
1011011101011111000100011        487
1011011101011111000100011        487
1011011101011111000100011        487
1011011101011111000100011        487
1011011101011111000100011        487
1011011101011111000100011        487
1011011101011111000100011        487
1011011101011111000100011        487
1011011101011111000100011        487
1011011101011111000100011        487
1011011101011111000100011        487
1011011101011111000100011        487
1011011101011111000100011        487
1011011101011111000100011        487
1011011101011111000100011        487
1011011101011111000100011        487
1011011101011111000100011        487
1011011101011111000100011        487
1011011101011111000100011        487
1011011101011111000100011        487
1011011101011111000100011        487
1011011101011111000100011        487
1011011101011111000100011        487
1011011101011111000100011        487
1011011101011111000100011        487
1011011101011111000100011        487
1011011101011111000100011        487
1011011101011111000100011        487
1011011101011111000100011        487
1011011101011111000100011        487
1011011101011111000100011        487
1011011101011111000100011        487
1011011101011111000100011        487
1011011101011111000100011        487
1011011101011111000100011        487
1011011101011111000100011        487
1011011101011111000100011        487
1011011101011111000100011        487
1011011101011111000100011        487
1011011101011111000100011        487
1011011101011111000100011        487
1011011101011111000100011        487
1011011101011111000100011        487
1011011101011111000100011        487
1011011101011111000100011        487
1011011101011111000100011        487
1011011101011111000100011        487
1011011101011111000100011        487
1011011101011111000100011        487
1011011101011111000100011        487
1011011101011111000100011        487
1011011101011111000100011        487
1011011101011111000100011        487
1011011101011111000100011        487
1011011101011111000100011        487
1011011101011111000100011        487
1011011101011111000100011        487
1011011101011111000100011        487
1011011101011111000100011        487
1011011101011111000100011        487
1011011101011111000100011        487
1011011101011111000100011        487
1011011101011111000100011        487
1011011101011111000100011        487
1011011101011111000100011        487
1011011101011111000100011        487
1011011101011111000100011        487
1011011101011111000100011        487
1011011101011111000100011        487
1011011101011111000100011        487
1011011101011111000100011        487
1011011101011111000100011        487
1011011101011111000100011        487
1011011101011111000100011        487
1011011101011111000100011        487
1011011101011111000100011        487
1011011101011111000100011        487
1011011101011111000100011        487
1011011101011111000100011        487
1011011101011111000100011        487
1011011101011111000100011        487
1011011101011111000100011        487
1011011101011111000100011        487
1011011101011111000100011        487
1011011101011111000100011        487
1011011101011111000100011        487
1011011101011111000100011        487
1011011101011111000100011        487
1011011101011111000100011        487
1011011101011111000100011        487
1011011101011111000100011        487
1011011101011111000100011        487
1011011101011111000100011        487
1011011101011111000100011        487
1011011101011111000100011        487
1011011101011111000100011        487
1011011101011111000100011        487
1011011101011111000100011        487
1011011101011111000100011        487
1011011101011111000100011        487
1011011101011111000100011        487
1011011101011111000100011        487
